(set-info :source |printed by MathSAT|)
(declare-fun |!{$(in_main#0)<a.1>}| () (Array Int Int))
(declare-fun |!{$(in_main#0)<a.1>}.next| () (Array Int Int))
(declare-fun |!{$(in_main#0)<b.2>}| () (Array Int Int))
(declare-fun |!{$(in_main#0)<b.2>}.next| () (Array Int Int))
(declare-fun |!{$(in_main#0)<c.3>}| () (Array Int Int))
(declare-fun |!{$(in_main#0)<c.3>}.next| () (Array Int Int))
(declare-fun |!{$(in_main#0)<N>}| () Int)
(declare-fun |!{$(in_main#0)<N>}.next| () Int)
(declare-fun |!{$(in_main#0)<i>}| () Int)
(declare-fun |!{$(in_main#0)<i>}.next| () Int)
(declare-fun |!{$(in_main#0)<k>}| () Int)
(declare-fun |!{$(in_main#0)<k>}.next| () Int)
(declare-fun |!{$(in_main#0)<$(in___VERIFIER_nondet_int#0)<h#<__VERIFIER_nondet_int.return>>>}| () Int)
(declare-fun |!{$(in_main#0)<$(in___VERIFIER_nondet_int#2)<h#<__VERIFIER_nondet_int.return>>>}| () Int)
(declare-fun !pc () Int)
(declare-fun !pc.next () Int)
(declare-fun |%{$(in_main#0)<k>}#1| () Int)
(declare-fun |%{$(in_main#0)<a.1>}#1| () (Array Int Int))
(declare-fun |%{$(in_main#0)<b.2>}#1| () (Array Int Int))
(declare-fun |%{$(in_main#0)<c.3>}#1| () (Array Int Int))
(define-fun .def_36 () Int (! !pc :next !pc.next))
(define-fun .def_39 () Bool (! (= .def_36 2) :init true))
(define-fun .def_172 () Bool (= .def_36 43))
(define-fun .def_151 () Bool (= !pc.next 66))
(define-fun .def_175 () Bool (and .def_151 .def_172))
(define-fun .def_10 () (Array Int Int) (! |!{$(in_main#0)<b.2>}| :next |!{$(in_main#0)<b.2>}.next|))
(define-fun .def_85 () Bool (= .def_10 |!{$(in_main#0)<b.2>}.next|))
(define-fun .def_8 () (Array Int Int) (! |!{$(in_main#0)<a.1>}| :next |!{$(in_main#0)<a.1>}.next|))
(define-fun .def_83 () Bool (= .def_8 |!{$(in_main#0)<a.1>}.next|))
(define-fun .def_96 () Bool (and .def_83 .def_85))
(define-fun .def_12 () (Array Int Int) (! |!{$(in_main#0)<c.3>}| :next |!{$(in_main#0)<c.3>}.next|))
(define-fun .def_87 () Bool (= .def_12 |!{$(in_main#0)<c.3>}.next|))
(define-fun .def_97 () Bool (and .def_87 .def_96))
(define-fun .def_14 () Int (! |!{$(in_main#0)<N>}| :next |!{$(in_main#0)<N>}.next|))
(define-fun .def_89 () Bool (= .def_14 |!{$(in_main#0)<N>}.next|))
(define-fun .def_98 () Bool (and .def_89 .def_97))
(define-fun .def_64 () Bool (= |!{$(in_main#0)<i>}.next| 0))
(define-fun .def_169 () Bool (and .def_64 .def_98))
(define-fun .def_18 () Int (! |!{$(in_main#0)<k>}| :next |!{$(in_main#0)<k>}.next|))
(define-fun .def_93 () Bool (= .def_18 |!{$(in_main#0)<k>}.next|))
(define-fun .def_170 () Bool (and .def_93 .def_169))
(define-fun .def_16 () Int (! |!{$(in_main#0)<i>}| :next |!{$(in_main#0)<i>}.next|))
(define-fun .def_130 () Bool (<= .def_14 .def_16))
(define-fun .def_171 () Bool (and .def_130 .def_170))
(define-fun .def_176 () Bool (and .def_171 .def_175))
(define-fun .def_70 () Bool (= !pc.next 43))
(define-fun .def_173 () Bool (and .def_70 .def_172))
(define-fun .def_159 () Int (* (- 1) |!{$(in_main#0)<$(in___VERIFIER_nondet_int#2)<h#<__VERIFIER_nondet_int.return>>>}|))
(define-fun .def_160 () (Array Int Int) (store .def_10 .def_16 .def_159))
(define-fun .def_162 () Bool (= |!{$(in_main#0)<b.2>}.next| .def_160))
(define-fun .def_158 () (Array Int Int) (store .def_8 .def_16 |!{$(in_main#0)<$(in___VERIFIER_nondet_int#2)<h#<__VERIFIER_nondet_int.return>>>}|))
(define-fun .def_161 () Bool (= |!{$(in_main#0)<a.1>}.next| .def_158))
(define-fun .def_163 () Bool (and .def_161 .def_162))
(define-fun .def_164 () Bool (and .def_87 .def_163))
(define-fun .def_165 () Bool (and .def_89 .def_164))
(define-fun .def_140 () Int (* (- 1) |!{$(in_main#0)<i>}.next|))
(define-fun .def_141 () Int (+ .def_16 .def_140))
(define-fun .def_142 () Bool (= .def_141 (- 1)))
(define-fun .def_166 () Bool (and .def_142 .def_165))
(define-fun .def_167 () Bool (and .def_93 .def_166))
(define-fun .def_131 () Bool (not .def_130))
(define-fun .def_168 () Bool (and .def_131 .def_167))
(define-fun .def_174 () Bool (and .def_168 .def_173))
(define-fun .def_177 () Bool (or .def_174 .def_176))
(define-fun .def_150 () Bool (= .def_36 66))
(define-fun .def_119 () Bool (= !pc.next 79))
(define-fun .def_154 () Bool (and .def_119 .def_150))
(define-fun .def_146 () Bool (= |!{$(in_main#0)<k>}.next| 1))
(define-fun .def_91 () Bool (= .def_16 |!{$(in_main#0)<i>}.next|))
(define-fun .def_99 () Bool (and .def_91 .def_98))
(define-fun .def_147 () Bool (and .def_99 .def_146))
(define-fun .def_148 () Bool (and .def_130 .def_147))
(define-fun .def_155 () Bool (and .def_148 .def_154))
(define-fun .def_152 () Bool (and .def_150 .def_151))
(define-fun .def_133 () Int (select .def_10 .def_16))
(define-fun .def_132 () Int (select .def_8 .def_16))
(define-fun .def_134 () Int (+ .def_132 .def_133))
(define-fun .def_135 () (Array Int Int) (store .def_12 .def_16 .def_134))
(define-fun .def_137 () Bool (= |!{$(in_main#0)<c.3>}.next| .def_135))
(define-fun .def_138 () Bool (and .def_96 .def_137))
(define-fun .def_139 () Bool (and .def_89 .def_138))
(define-fun .def_143 () Bool (and .def_139 .def_142))
(define-fun .def_144 () Bool (and .def_93 .def_143))
(define-fun .def_145 () Bool (and .def_131 .def_144))
(define-fun .def_153 () Bool (and .def_145 .def_152))
(define-fun .def_156 () Bool (or .def_153 .def_155))
(define-fun .def_123 () Bool (= !pc.next 0))
(define-fun .def_114 () Bool (= .def_36 79))
(define-fun .def_124 () Bool (and .def_114 .def_123))
(define-fun .def_73 () Bool (<= .def_14 .def_18))
(define-fun .def_107 () Bool (and .def_73 .def_83))
(define-fun .def_108 () Bool (and .def_85 .def_107))
(define-fun .def_109 () Bool (and .def_87 .def_108))
(define-fun .def_110 () Bool (and .def_89 .def_109))
(define-fun .def_111 () Bool (and .def_91 .def_110))
(define-fun .def_112 () Bool (and .def_93 .def_111))
(define-fun .def_125 () Bool (and .def_112 .def_124))
(define-fun .def_120 () Bool (and .def_114 .def_119))
(define-fun .def_101 () Int (* (- 1) |!{$(in_main#0)<k>}.next|))
(define-fun .def_102 () Int (+ .def_18 .def_101))
(define-fun .def_103 () Bool (= .def_102 (- 1)))
(define-fun .def_104 () Bool (and .def_99 .def_103))
(define-fun .def_75 () Int (select .def_12 .def_18))
(define-fun .def_76 () Bool (= .def_75 0))
(define-fun .def_77 () Int (ite .def_76 1 0))
(define-fun .def_78 () Bool (= .def_77 0))
(define-fun .def_79 () Bool (not .def_78))
(define-fun .def_105 () Bool (and .def_79 .def_104))
(define-fun .def_74 () Bool (not .def_73))
(define-fun .def_106 () Bool (and .def_74 .def_105))
(define-fun .def_121 () Bool (and .def_106 .def_120))
(define-fun .def_116 () Bool (= !pc.next 99))
(define-fun .def_117 () Bool (and .def_114 .def_116))
(define-fun .def_84 () Bool (and .def_78 .def_83))
(define-fun .def_86 () Bool (and .def_84 .def_85))
(define-fun .def_88 () Bool (and .def_86 .def_87))
(define-fun .def_90 () Bool (and .def_88 .def_89))
(define-fun .def_92 () Bool (and .def_90 .def_91))
(define-fun .def_94 () Bool (and .def_92 .def_93))
(define-fun .def_95 () Bool (and .def_74 .def_94))
(define-fun .def_118 () Bool (and .def_95 .def_117))
(define-fun .def_122 () Bool (or .def_118 .def_121))
(define-fun .def_126 () Bool (or .def_122 .def_125))
(define-fun .def_71 () Bool (and .def_39 .def_70))
(define-fun .def_66 () Bool (= |!{$(in_main#0)<k>}.next| |%{$(in_main#0)<k>}#1|))
(define-fun .def_62 () Bool (= |!{$(in_main#0)<N>}.next| |!{$(in_main#0)<$(in___VERIFIER_nondet_int#0)<h#<__VERIFIER_nondet_int.return>>>}|))
(define-fun .def_60 () Bool (= |!{$(in_main#0)<c.3>}.next| |%{$(in_main#0)<c.3>}#1|))
(define-fun .def_58 () Bool (= |!{$(in_main#0)<b.2>}.next| |%{$(in_main#0)<b.2>}#1|))
(define-fun .def_57 () Bool (= |!{$(in_main#0)<a.1>}.next| |%{$(in_main#0)<a.1>}#1|))
(define-fun .def_59 () Bool (and .def_57 .def_58))
(define-fun .def_61 () Bool (and .def_59 .def_60))
(define-fun .def_63 () Bool (and .def_61 .def_62))
(define-fun .def_65 () Bool (and .def_63 .def_64))
(define-fun .def_67 () Bool (and .def_65 .def_66))
(define-fun .def_52 () Bool (<= |!{$(in_main#0)<$(in___VERIFIER_nondet_int#0)<h#<__VERIFIER_nondet_int.return>>>}| 0))
(define-fun .def_53 () Bool (not .def_52))
(define-fun .def_54 () Int (ite .def_53 1 0))
(define-fun .def_55 () Bool (= .def_54 0))
(define-fun .def_56 () Bool (not .def_55))
(define-fun .def_68 () Bool (and .def_56 .def_67))
(define-fun .def_72 () Bool (and .def_68 .def_71))
(define-fun .def_127 () Bool (or .def_72 .def_126))
(define-fun .def_157 () Bool (or .def_127 .def_156))
(define-fun .def_178 () Bool (! (or .def_157 .def_177) :trans true))
(define-fun .def_128 () Bool (= .def_36 99))
(define-fun .def_179 () Bool (! (not .def_128) :invar-property 0 :invar-property-name ||))
(assert true)
